NAME : XML100_3242_02
DIMENSION : 101
NB_CLUSTERS : 3
CLUSTERING_ALG : KMedoids
CLUSTERING_PARAMS : k(2)
CLUSTERS
1 0
2 1 4 5 6 7 8 9 10 11 13 16 17 20 21 22 25 26 27 28 29 30 33 35 39 40 41 42 43 44 45 47 48 49 52 53 56 58 60 64 65 66 67 68 69 70 71 72 74 77 78 85 86 89 90 91 92 95 100
3 2 3 12 14 15 18 19 23 24 31 32 34 36 37 38 46 50 51 54 55 57 59 61 62 63 73 75 76 79 80 81 82 83 84 87 88 93 94 96 97 98 99
EOF